c Ex 1.2
p cnf 10 23

-6 1 0
-6 2 0
6 -1 -2 0

-8 3 0
-8 2 0
8 -3 -2 0

-9 7 0
-9 8 0
9 -7 -8 0

-7 2 3 0
7 -2 0
7 -3 0

-4 6 9 0
4 -6 0
4 -9 0 

-10 1 3 0
10 -1 0
10 -3 0

-5 10 0
-5 2 0
5 -10 -2 0

4 5 0
-4 -5 0